n_res = 4;
rc = [ 30, 17, 27, 16 ];
n_tasks = 30;
d = [ 2, 10, 4, 6, 5, 4, 7, 2, 1, 7, 10, 6, 5, 2, 3, 8, 3, 8, 3, 8, 8, 8, 1, 3, 8, 3, 2, 1, 2, 6 ];
rr = [| 0, 2, 5, 6, 2, 0, 0, 0, 0, 0, 10, 0, 0, 4, 2, 7, 7, 9, 0, 5, 0, 9, 0, 0, 1, 0, 2, 0, 0, 8
      | 5, 9, 0, 8, 8, 0, 0, 7, 4, 0, 8, 2, 0, 0, 0, 1, 3, 0, 0, 1, 3, 10, 0, 4, 0, 7, 0, 0, 4, 0
      | 5, 10, 0, 0, 7, 5, 3, 0, 0, 0, 0, 0, 5, 1, 1, 9, 0, 7, 7, 0, 5, 8, 1, 0, 6, 5, 0, 0, 0, 10
      | 9, 0, 5, 0, 0, 7, 2, 0, 2, 9, 0, 0, 0, 0, 0, 0, 0, 0, 0, 0, 0, 8, 0, 5, 9, 9, 3, 1, 0, 8 |];
suc = [ { 2 }, 
        { 3 }, 
        { 4 }, 
        { 5 }, 
        { 6 }, 
        { 7 }, 
        { 8 }, 
        { 9 }, 
        { 10 }, 
        { 11 }, 
        { 12 }, 
        { 13 }, 
        { 14 }, 
        { 15 }, 
        { 16 }, 
        { 17 }, 
        { 18 }, 
        { 19 }, 
        { 20 }, 
        { 21 }, 
        { 22 }, 
        { 23 }, 
        { 24 }, 
        { 25 }, 
        { 26 }, 
        { 27 }, 
        { 28 }, 
        { 29 }, 
        { 30 }, 
        {  }]; 
